c [ -1 2 3 -4 5 6 7 8 9 10 ]
c r=8.000 p0=0.080
p cnf 10 80
-1 2 -3 0
-10 -9 5 0
-4 -5 -6 0
-4 1 -9 0
-1 8 -9 0
-8 -5 -1 0
-8 -1 3 0
-8 3 -7 0
3 4 -9 0
4 5 -9 0
-10 -1 5 0
6 10 -4 0
-5 -7 9 0
-9 4 10 0
9 1 -3 0
5 -7 -6 0
9 4 -5 0
4 5 1 0
-8 9 5 0
-1 -3 7 0
-3 4 7 0
-10 5 7 0
-5 10 -1 0
-7 -8 5 0
-3 -9 8 0
-2 -9 8 0
10 -9 -8 0
9 -5 -7 0
-10 2 -6 0
5 -3 -1 0
-7 8 -6 0
-9 7 -10 0
-9 6 8 0
9 4 10 0
2 -7 3 0
3 2 -5 0
9 10 -1 0
-3 10 6 0
-2 8 -4 0
4 -10 6 0
-7 8 6 0
3 -6 10 0
-6 2 -5 0
9 4 -6 0
-4 -5 -2 0
6 -8 5 0
7 -3 4 0
9 8 5 0
3 -10 -2 0
2 -4 1 0
8 3 5 0
-5 -2 -4 0
-8 -1 10 0
6 5 3 0
1 -10 7 0
2 4 -6 0
-1 -2 8 0
-1 2 -5 0
-9 8 -3 0
9 -1 8 0
6 -2 -8 0
5 8 1 0
6 -8 2 0
-7 9 -8 0
2 10 1 0
9 -5 -6 0
9 -8 2 0
-8 -1 7 0
-9 1 10 0
-3 6 5 0
-8 -10 2 0
9 -7 4 0
7 1 -9 0
1 5 -7 0
-5 2 8 0
-8 -5 7 0
-1 2 -10 0
-1 4 2 0
-1 -7 8 0
8 -3 1 0
